job_count = 14 ;
duration = [|22, 10, 3|11, 14, 19|29, 22, 12|2, 20, 11|29, 3, 5|13, 20, 16|27, 11, 14|7, 15, 12|6, 2, 15|15, 17, 6|17, 10, 8|10, 5, 19|28, 5, 19|7, 6, 2|] ;
machine_count = 3 ;
cost = [|27, 28, 33|39, 40, 37|22, 38, 53|18, 33, 51|15, 30, 39|16, 46, 34|26, 43, 40|20, 42, 49|30, 35, 47|14, 43, 56|13, 22, 59|31, 45, 52|27, 30, 31|27, 26, 51|] ;
deadline = [61, 27, 53, 38, 79, 69, 55, 57, 77, 48, 57, 36, 35, 62] ;
release = [46, 3, 21, 6, 46, 29, 33, 43, 38, 4, 42, 5, 15, 20] ;
resource = [|8, 8, 8|1, 1, 1|9, 9, 9|8, 8, 8|8, 8, 8|4, 4, 4|6, 6, 6|9, 9, 9|1, 1, 1|1, 1, 1|7, 7, 7|4, 4, 4|5, 5, 5|9, 9, 9|] ;
capacities = [10, 10, 10] ;
